solution status: optimal solution found
objective value:                     181485.290999729
d11(0,0)                                            1 	(obj:0)
d11(1,1)                                            1 	(obj:0)
d11(2,3)                                            1 	(obj:0)
d11(2,4)                                            1 	(obj:0)
d11(2,5)                                            1 	(obj:0)
d11(2,6)                                            1 	(obj:0)
d11(3,7)                                            1 	(obj:0)
d11(3,9)                                            1 	(obj:0)
d11(3,11)                                           1 	(obj:0)
d11(3,13)                                           1 	(obj:0)
d11(4,15)                                           1 	(obj:0)
d11(4,16)                                           1 	(obj:0)
d11(4,17)                                           1 	(obj:0)
d11(4,18)                                           1 	(obj:0)
d11(4,19)                                           1 	(obj:0)
d11(4,21)                                           1 	(obj:0)
d11(4,22)                                           1 	(obj:0)
d11(4,23)                                           1 	(obj:0)
d11(4,24)                                           1 	(obj:0)
d11(4,25)                                           1 	(obj:0)
d11(4,26)                                           1 	(obj:0)
d11(4,27)                                           1 	(obj:0)
d11(4,28)                                           1 	(obj:0)
d11(4,29)                                           1 	(obj:0)
d11(5,31)                                           1 	(obj:0)
d11(5,33)                                           1 	(obj:0)
d11(5,35)                                           1 	(obj:0)
d11(5,37)                                           1 	(obj:0)
d11(5,39)                                           1 	(obj:0)
d11(5,41)                                           1 	(obj:0)
d11(5,43)                                           1 	(obj:0)
d11(5,45)                                           1 	(obj:0)
d11(5,47)                                           1 	(obj:0)
d11(5,49)                                           1 	(obj:0)
d11(5,51)                                           1 	(obj:0)
d11(5,53)                                           1 	(obj:0)
d11(5,55)                                           1 	(obj:0)
d11(5,59)                                           1 	(obj:0)
d11(5,61)                                           1 	(obj:0)
d12(3,8)                                            1 	(obj:0)
d12(3,10)                                           1 	(obj:0)
d12(3,12)                                           1 	(obj:0)
d12(3,14)                                           1 	(obj:0)
d12(5,32)                                           1 	(obj:0)
d12(5,34)                                           1 	(obj:0)
d12(5,36)                                           1 	(obj:0)
d12(5,38)                                           1 	(obj:0)
d12(5,40)                                           1 	(obj:0)
d12(5,42)                                           1 	(obj:0)
d12(5,44)                                           1 	(obj:0)
d12(5,46)                                           1 	(obj:0)
d12(5,48)                                           1 	(obj:0)
d12(5,50)                                           1 	(obj:0)
d12(5,52)                                           1 	(obj:0)
d12(5,54)                                           1 	(obj:0)
d12(5,56)                                           1 	(obj:0)
d12(5,58)                                           1 	(obj:0)
d12(5,60)                                           1 	(obj:0)
d12(5,62)                                           1 	(obj:0)
d21(2,3)                                            1 	(obj:0)
d21(3,7)                                            1 	(obj:0)
d21(4,15)                                           1 	(obj:0)
d21(4,16)                                           1 	(obj:0)
d21(4,17)                                           1 	(obj:0)
d21(4,19)                                           1 	(obj:0)
d21(4,23)                                           1 	(obj:0)
d21(5,31)                                           1 	(obj:0)
d21(5,32)                                           1 	(obj:0)
d21(5,33)                                           1 	(obj:0)
d21(5,34)                                           1 	(obj:0)
d21(5,35)                                           1 	(obj:0)
d21(5,36)                                           1 	(obj:0)
d21(5,37)                                           1 	(obj:0)
d21(5,39)                                           1 	(obj:0)
d21(5,40)                                           1 	(obj:0)
d21(5,43)                                           1 	(obj:0)
d21(5,47)                                           1 	(obj:0)
d21(5,48)                                           1 	(obj:0)
d21(5,49)                                           1 	(obj:0)
d21(5,51)                                           1 	(obj:0)
y2(5,40)                             1385.48851144895 	(obj:0)
y2(5,42)                             1385.48851144895 	(obj:0)
y2(5,44)                             1385.48851144895 	(obj:0)
y2(5,46)                             1385.48851144895 	(obj:0)
y2(5,48)                             1385.48851144895 	(obj:0)
y2(5,50)                             1385.48851144895 	(obj:0)
y2(5,52)                             1385.48851144895 	(obj:0)
y2(5,54)                             1385.48851144895 	(obj:0)
y2(5,56)                             1385.48851144895 	(obj:0)
y2(5,58)                             1385.48851144895 	(obj:0)
y2(5,60)                             1385.48851144895 	(obj:0)
y2(5,62)                             1385.48851144895 	(obj:0)
STE(1,1)                             2688.75010111112 	(obj:0)
STE(0,0)                                         4725 	(obj:0)
STE(1,2)                                         4347 	(obj:0)
STE(2,3)                             652.500202222303 	(obj:0)
STE(2,4)                             2310.75010111112 	(obj:0)
STE(2,5)                             2310.75010111118 	(obj:0)
STE(2,6)                                         3969 	(obj:0)
STE(3,7)                             42.7501011111824 	(obj:0)
STE(3,8)                             1384.48034607938 	(obj:0)
STE(3,9)                                         1701 	(obj:0)
STE(3,10)                            3042.73024496819 	(obj:0)
STE(3,11)                            1701.00000000006 	(obj:0)
STE(3,12)                            3042.73024496825 	(obj:0)
STE(3,13)                            3359.24989888888 	(obj:0)
STE(3,14)                            4700.98014385707 	(obj:0)
STE(4,15)                           -1993.49979777764 	(obj:0)
STE(4,16)                           -335.249898888818 	(obj:0)
STE(4,17)                           -651.769552809442 	(obj:0)
STE(4,18)                            1006.48034607938 	(obj:0)
STE(4,19)                           -335.249898888817 	(obj:0)
STE(4,20)                                        1323 	(obj:0)
STE(4,21)                            1006.48034607938 	(obj:0)
STE(4,22)                            2664.73024496819 	(obj:0)
STE(4,23)                           -335.249898888756 	(obj:0)
STE(4,24)                            1323.00000000006 	(obj:0)
STE(4,25)                            1006.48034607944 	(obj:0)
STE(4,26)                            2664.73024496825 	(obj:0)
STE(4,27)                            1323.00000000006 	(obj:0)
STE(4,28)                            2981.24989888888 	(obj:0)
STE(4,29)                            2664.73024496825 	(obj:0)
STE(4,30)                            4322.98014385707 	(obj:0)
STE(5,31)                           -2371.49979777764 	(obj:0)
STE(5,32)                           -1055.28571190113 	(obj:0)
STE(5,33)                           -713.249898888818 	(obj:0)
STE(5,34)                            602.964186987688 	(obj:0)
STE(5,35)                           -1029.76955280944 	(obj:0)
STE(5,36)                            286.444533067063 	(obj:0)
STE(5,37)                            628.480346079313 	(obj:0)
STE(5,38)                            1944.69443195588 	(obj:0)
STE(5,39)                           -713.249898888879 	(obj:0)
STE(5,40)                            602.964186987688 	(obj:0)
STE(5,41)                                         945 	(obj:0)
STE(5,42)                            2261.21408587651 	(obj:0)
STE(5,43)                            628.480346079313 	(obj:0)
STE(5,44)                            1944.69443195588 	(obj:0)
STE(5,45)                            2286.73024496819 	(obj:0)
STE(5,46)                             3602.9443308447 	(obj:0)
STE(5,47)                           -713.249898888817 	(obj:0)
STE(5,48)                             602.96418698775 	(obj:0)
STE(5,49)                                         945 	(obj:0)
STE(5,50)                            2261.21408587657 	(obj:0)
STE(5,51)                            628.480346079375 	(obj:0)
STE(5,52)                            1944.69443195594 	(obj:0)
STE(5,53)                            2286.73024496825 	(obj:0)
STE(5,54)                            3602.94433084476 	(obj:0)
STE(5,55)                                         945 	(obj:0)
STE(5,56)                            2261.21408587657 	(obj:0)
STE(5,57)                            2603.24989888888 	(obj:0)
STE(5,58)                            3919.46398476538 	(obj:0)
STE(5,59)                            2286.73024496825 	(obj:0)
STE(5,60)                            3602.94433084476 	(obj:0)
STE(5,61)                            3944.98014385707 	(obj:0)
STE(5,62)                            5261.19422973358 	(obj:0)
AVE(1)                                   3216.9117036 	(obj:0)
AVE(2)                                   3366.1541945 	(obj:0)
WB(3)                                629.155021114238 	(obj:0)
AVE(3)                                   3515.3966854 	(obj:0)
WB(4)                                3515.39406545826 	(obj:0)
AVE(4)                               3515.39406545826 	(obj:0)
WB(5)                                3167.15385943327 	(obj:0)
AVE(5)                               3167.15385943327 	(obj:0)
WG(1)                                    3216.9117036 	(obj:10)
WG(2)                                    3366.1541945 	(obj:10)
WG(3)                                2886.24166428576 	(obj:10)
BG(1)                                979.380795379625 	(obj:10)
BG(2)                                830.138304479565 	(obj:10)
BG(4)                                4196.29249897959 	(obj:10)
BG(5)                                2673.40993877551 	(obj:10)
y1(1,1)                              1492.42490899999 	(obj:0)
y1(2,3)                              1492.42490899994 	(obj:0)
y1(2,5)                              1492.42490899994 	(obj:0)
y1(3,7)                              208.575091000009 	(obj:0)
y1(3,9)                              208.575091000009 	(obj:0)
y1(3,11)                             208.575091000009 	(obj:0)
y1(3,13)                             208.575091000009 	(obj:0)
y1(4,15)                             1492.42490899994 	(obj:0)
y1(4,17)                             1492.42490899994 	(obj:0)
y1(4,19)                             1492.42490899994 	(obj:0)
y1(4,21)                             1492.42490899994 	(obj:0)
y1(4,23)                             1492.42490899994 	(obj:0)
y1(4,25)                             1492.42490899994 	(obj:0)
y1(4,27)                             1492.42490899994 	(obj:0)
y1(4,29)                             1492.42490899994 	(obj:0)
y2(3,8)                               1168.4001514285 	(obj:0)
y2(3,10)                              1168.4001514285 	(obj:0)
y2(3,12)                              1168.4001514285 	(obj:0)
y2(3,14)                              1168.4001514285 	(obj:0)
y2(5,32)                             1385.48851144895 	(obj:0)
y2(5,34)                             1385.48851144895 	(obj:0)
y2(5,36)                             1385.48851144895 	(obj:0)
y2(5,38)                             1385.48851144895 	(obj:0)
